NAME: br17 
TYPE: ATSP 
COMMENT: 17 city problem (Repetto) 
DIMENSION: 17 
EDGE_WEIGHT_TYPE: EXPLICIT 
EDGE_WEIGHT_FORMAT: FULL_MATRIX 

CROSSOVER: 1
MUTATIONS: 1 0
SELECTION: 1
GENERATIONS: 510
POPULATION: 51

0 time
 4 16 7 12 1 10 5 3 6 9 2 13 11 0 8 15 14 | Mu 72.

1 time
 12 10 0 14 3 7 9 15 6 4 16 8 11 2 13 1 5 | Mu 89.

2 time
 1 16 10 13 9 8 11 0 12 6 15 4 3 14 5 7 2 | Mu 86.

3 time
 2 12 10 11 0 16 6 3 4 15 5 14 8 7 9 1 13 | Mu 47.

4 time
 4 5 15 16 12 1 9 10 14 7 8 11 2 13 0 6 3 | Mu 64.

MINIMUM: 47
AVERAGE: 71
MAXIMUM: 89

CROSSOVER: 1
MUTATIONS: 2 0
SELECTION: 1
GENERATIONS: 510
POPULATION: 51

0 time
 10 2 9 12 8 5 6 15 4 3 14 16 7 1 13 0 11 | Mu 55.

1 time
 1 9 2 11 13 12 10 8 7 5 15 3 4 14 6 0 16 | Mu 59.

2 time
 13 11 1 15 5 14 4 3 6 7 8 9 16 10 12 2 0 | Mu 64.

3 time
 9 11 15 14 3 4 5 1 12 0 7 8 6 16 10 2 13 | Mu 66.

4 time
 1 15 7 16 12 8 11 14 6 3 4 5 0 9 13 2 10 | Mu 68.

MINIMUM: 55
AVERAGE: 62
MAXIMUM: 68

CROSSOVER: 1
MUTATIONS: 1 2
SELECTION: 1
GENERATIONS: 510
POPULATION: 51

0 time
 7 16 9 1 12 2 13 11 0 10 15 14 5 6 4 3 8 | Mu 42.

1 time
 8 11 12 2 13 0 1 10 9 14 5 4 3 6 15 16 7 | Mu 47.

2 time
 13 9 8 16 10 12 11 7 6 5 14 4 3 15 0 1 2 | Mu 55.

3 time
 5 7 8 16 12 10 9 6 14 3 4 15 11 13 2 1 0 | Mu 60.

4 time
 4 3 5 15 9 2 13 1 12 10 8 7 16 6 11 0 14 | Mu 55.

MINIMUM: 42
AVERAGE: 51
MAXIMUM: 60

CROSSOVER: 1
MUTATIONS: 1 0
SELECTION: 2
GENERATIONS: 510
POPULATION: 51

0 time
 14 9 12 2 13 1 10 11 7 16 4 3 5 6 8 0 15 | Mu 61.

1 time
 0 14 5 6 15 4 3 8 16 12 10 9 13 2 1 7 11 | Mu 47.

2 time
 11 6 4 8 7 1 10 12 13 2 9 14 5 15 3 16 0 | Mu 68.

3 time
 2 13 10 9 1 12 0 16 8 4 3 15 5 6 14 7 11 | Mu 47.

4 time
 14 8 7 0 1 12 10 15 6 3 16 11 13 2 9 5 4 | Mu 75.

MINIMUM: 47
AVERAGE: 59
MAXIMUM: 75

CROSSOVER: 1
MUTATIONS: 2 0
SELECTION: 2
GENERATIONS: 510
POPULATION: 51

0 time
 5 16 1 12 0 8 7 6 15 10 9 13 2 11 14 4 3 | Mu 65.

1 time
 4 14 16 7 8 9 13 2 12 1 10 11 0 5 6 15 3 | Mu 42.

2 time
 8 16 1 9 10 7 3 4 14 12 13 2 11 0 5 6 15 | Mu 60.

3 time
 8 16 12 10 13 11 5 6 15 4 3 14 0 2 9 1 7 | Mu 54.

4 time
 11 10 9 2 13 0 12 6 5 15 14 4 3 16 7 8 1 | Mu 48.

MINIMUM: 42
AVERAGE: 53
MAXIMUM: 178

CROSSOVER: 1
MUTATIONS: 1 2
SELECTION: 2
GENERATIONS: 510
POPULATION: 51

0 time
 7 16 10 12 11 0 13 2 1 9 6 3 4 5 15 14 8 | Mu 44.

1 time
 1 15 5 0 10 12 7 14 6 3 4 8 16 11 2 13 9 | Mu 63.

2 time
 13 1 12 8 0 11 14 15 5 6 3 4 7 16 9 10 2 | Mu 47.

3 time
 2 1 9 10 5 14 15 6 3 4 8 16 7 0 11 12 13 | Mu 40.

4 time
 15 1 12 10 13 2 11 7 16 8 0 9 14 6 5 3 4 | Mu 49.

MINIMUM: 40
AVERAGE: 48
MAXIMUM: 63

CROSSOVER: 2
MUTATIONS: 1 2
SELECTION: 2
GENERATIONS: 510
POPULATION: 51

0 time
 7 16 10 12 9 13 2 1 6 15 14 5 4 3 8 11 0 | Mu 47.

1 time
 1 9 2 13 10 6 15 8 7 16 3 4 14 5 11 0 12 | Mu 51.

2 time
 6 4 3 15 11 7 16 8 12 9 1 10 13 2 0 5 14 | Mu 46.

3 time
 15 16 9 2 13 10 1 12 7 8 11 0 14 3 4 6 5 | Mu 49.

4 time
 1 6 5 3 4 16 7 0 11 14 15 8 10 12 9 13 2 | Mu 58.

MINIMUM: 46
AVERAGE: 50
MAXIMUM: 58

